977,452
646,454
624,388
293,688
168,572
681,-14
664,430
782,93
710,402
681,-134
1093,107
321,406
300,787
563,424
817,139
515,919
415,364
504,59
681,796
436,-75
664,382
888,374
469,618
804,237
681,286
698,430
196,563
740,415
1051,526
452,721
681,136
567,369
937,323
618,469
